20
C20 fullerene cage, best structure from the hybrid PSO search (GFN2-xTB fitness). De Tomas group, King's College London. Arden Tsang, 2026.
C       0.615369993541772     -1.457768306701111     -1.262913236754469
C       0.293913990400643      0.753502745115490     -1.861017011189161
C      -0.918707259159256      1.896194621323097     -0.252695866821311
C      -1.250458906810098      0.299174076889680      1.386392960557601
C      -0.328489149183396     -1.801256996376464      0.785737267321482
C      -0.610047564292886      1.543839614881147      1.107606765297686
C      -0.264576335221851     -0.680749416994563      1.731584134984133
C       0.911146656265236     -1.821887625005753      0.117281438470777
C       1.279063420956323     -0.222036677053121     -1.528038986552742
C       0.335763005843543      1.845784866029495     -0.911175898152641
C       0.830157682681747      1.430714470549453      1.386619702668598
C       1.013083490795964     -0.063919319088868      1.727247965903197
C       1.752275706208690     -0.719225900344136      0.711303122622431
C       1.963232555549238      0.228038440641096     -0.331028409302567
C       1.362834094100237      1.487672018324040      0.066166553206040
C      -0.832635209134107     -1.331315554926285     -1.490267974107175
C      -0.993497074592086      0.103443290293320     -1.838749558280293
C      -1.734436284709463      0.775511950845951     -0.849057975506996
C      -1.929283612218532     -0.187288848577979      0.202186239238732
C      -1.388970882664308     -1.474518075912614     -0.179152705714506
